out/production/KConstraintMultipleKnapsackProblem/zimpl/lpfiles/knapsack50nr13.lp
\ This file was automatically generated by Zimpl
\ param file := "instances/knapsack50nr13.txt";
\ param n := read file as "1n" use 1 comment "#";
\ do print n;
\ param m := read file as "1n" skip 1 use 1 comment "#";
\ do print m;
\ param k := read file as "1n" skip 2 use 1 comment "#";
\ do print k;
\ set Items := {1 to n};
\ set Knapsacks := {1 to m};
\ set Capacities := {1 to k};
\ param p[Items] := read file as "1n" skip 3 use n comment "#";
\ param w[Items*Capacities] := read file as "n+" skip 3+n use n comment "#";
\ param c[Knapsacks*Capacities] := read file as "n+" skip 3+2*n use m comment "#";
\ var x[Knapsacks * Items] binary;
\ maximize profit: sum <i> in Knapsacks: sum <j> in Items: p[j]* x[i,j];
\ subto cap: forall <i> in Knapsacks: forall <h> in Capacities: sum <j> in Items: w[j,h]*x[i,j] <= c[i,h];
\ subto one: forall <j> in Items: sum <i> in Knapsacks: x[i,j] <= 1;
\Problem name: zimplfiles/knapsack50nr13.zpl
Maximize
 profit:  +832 x#1#1 +942 x#1#2 +388 x#1#3 +980 x#1#4 +618 x#1#5 +998 x#1#6
  +381 x#1#7 +293 x#1#8 +227 x#1#9 +202 x#1#10 +2 x#1#11 +530 x#1#12
  +570 x#1#13 +801 x#1#14 +274 x#1#15 +691 x#1#16 +319 x#1#17 +134 x#1#18
  +71 x#1#19 +788 x#1#20 +83 x#1#21 +613 x#1#22 +698 x#1#23 +313 x#1#24
  +922 x#1#25 +611 x#1#26 +520 x#1#27 +107 x#1#28 +897 x#1#29 +531 x#1#30
  +129 x#1#31 +777 x#1#32 +352 x#1#33 +220 x#1#34 +813 x#1#35 +536 x#1#36
  +874 x#1#37 +716 x#1#38 +526 x#1#39 +132 x#1#40 +569 x#1#41 +954 x#1#42
  +913 x#1#43 +349 x#1#44 +683 x#1#45 +540 x#1#46 +693 x#1#47 +932 x#1#48
  +216 x#1#49 +261 x#1#50 +832 x#2#1 +942 x#2#2 +388 x#2#3 +980 x#2#4
  +618 x#2#5 +998 x#2#6 +381 x#2#7 +293 x#2#8 +227 x#2#9 +202 x#2#10
  +2 x#2#11 +530 x#2#12 +570 x#2#13 +801 x#2#14 +274 x#2#15 +691 x#2#16
  +319 x#2#17 +134 x#2#18 +71 x#2#19 +788 x#2#20 +83 x#2#21 +613 x#2#22
  +698 x#2#23 +313 x#2#24 +922 x#2#25 +611 x#2#26 +520 x#2#27 +107 x#2#28
  +897 x#2#29 +531 x#2#30 +129 x#2#31 +777 x#2#32 +352 x#2#33 +220 x#2#34
  +813 x#2#35 +536 x#2#36 +874 x#2#37 +716 x#2#38 +526 x#2#39 +132 x#2#40
  +569 x#2#41 +954 x#2#42 +913 x#2#43 +349 x#2#44 +683 x#2#45 +540 x#2#46
  +693 x#2#47 +932 x#2#48 +216 x#2#49 +261 x#2#50 +832 x#3#1 +942 x#3#2
  +388 x#3#3 +980 x#3#4 +618 x#3#5 +998 x#3#6 +381 x#3#7 +293 x#3#8
  +227 x#3#9 +202 x#3#10 +2 x#3#11 +530 x#3#12 +570 x#3#13 +801 x#3#14
  +274 x#3#15 +691 x#3#16 +319 x#3#17 +134 x#3#18 +71 x#3#19 +788 x#3#20
  +83 x#3#21 +613 x#3#22 +698 x#3#23 +313 x#3#24 +922 x#3#25 +611 x#3#26
  +520 x#3#27 +107 x#3#28 +897 x#3#29 +531 x#3#30 +129 x#3#31 +777 x#3#32
  +352 x#3#33 +220 x#3#34 +813 x#3#35 +536 x#3#36 +874 x#3#37 +716 x#3#38
  +526 x#3#39 +132 x#3#40 +569 x#3#41 +954 x#3#42 +913 x#3#43 +349 x#3#44
  +683 x#3#45 +540 x#3#46 +693 x#3#47 +932 x#3#48 +216 x#3#49 +261 x#3#50
  +832 x#4#1 +942 x#4#2 +388 x#4#3 +980 x#4#4 +618 x#4#5 +998 x#4#6
  +381 x#4#7 +293 x#4#8 +227 x#4#9 +202 x#4#10 +2 x#4#11 +530 x#4#12
  +570 x#4#13 +801 x#4#14 +274 x#4#15 +691 x#4#16 +319 x#4#17 +134 x#4#18
  +71 x#4#19 +788 x#4#20 +83 x#4#21 +613 x#4#22 +698 x#4#23 +313 x#4#24
  +922 x#4#25 +611 x#4#26 +520 x#4#27 +107 x#4#28 +897 x#4#29 +531 x#4#30
  +129 x#4#31 +777 x#4#32 +352 x#4#33 +220 x#4#34 +813 x#4#35 +536 x#4#36
  +874 x#4#37 +716 x#4#38 +526 x#4#39 +132 x#4#40 +569 x#4#41 +954 x#4#42
  +913 x#4#43 +349 x#4#44 +683 x#4#45 +540 x#4#46 +693 x#4#47 +932 x#4#48
  +216 x#4#49 +261 x#4#50 +832 x#5#1 +942 x#5#2 +388 x#5#3 +980 x#5#4
  +618 x#5#5 +998 x#5#6 +381 x#5#7 +293 x#5#8 +227 x#5#9 +202 x#5#10
  +2 x#5#11 +530 x#5#12 +570 x#5#13 +801 x#5#14 +274 x#5#15 +691 x#5#16
  +319 x#5#17 +134 x#5#18 +71 x#5#19 +788 x#5#20 +83 x#5#21 +613 x#5#22
  +698 x#5#23 +313 x#5#24 +922 x#5#25 +611 x#5#26 +520 x#5#27 +107 x#5#28
  +897 x#5#29 +531 x#5#30 +129 x#5#31 +777 x#5#32 +352 x#5#33 +220 x#5#34
  +813 x#5#35 +536 x#5#36 +874 x#5#37 +716 x#5#38 +526 x#5#39 +132 x#5#40
  +569 x#5#41 +954 x#5#42 +913 x#5#43 +349 x#5#44 +683 x#5#45 +540 x#5#46
  +693 x#5#47 +932 x#5#48 +216 x#5#49 +261 x#5#50
Subject to
 cap_1:
  +282 x#1#50 +536 x#1#49 +893 x#1#48 +196 x#1#47 +575 x#1#46 +659 x#1#45
  +843 x#1#44 +378 x#1#43 +842 x#1#42 +801 x#1#41 +413 x#1#40 +213 x#1#39
  +942 x#1#38 +23 x#1#37 +647 x#1#36 +682 x#1#35 +703 x#1#34 +477 x#1#33
  +117 x#1#32 +519 x#1#31 +522 x#1#30 +104 x#1#29 +520 x#1#28 +633 x#1#27
  +849 x#1#26 +562 x#1#25 +398 x#1#24 +292 x#1#23 +838 x#1#22 +244 x#1#21
  +286 x#1#20 +531 x#1#19 +603 x#1#18 +428 x#1#17 +257 x#1#16 +291 x#1#15
  +343 x#1#14 +446 x#1#13 +186 x#1#12 +420 x#1#11 +939 x#1#10 +71 x#1#9
  +695 x#1#8 +103 x#1#7 +816 x#1#6 +21 x#1#5 +901 x#1#4 +776 x#1#3
  +779 x#1#2 +80 x#1#1 <= 2394
 cap_2:
  +905 x#1#50 +233 x#1#49 +860 x#1#48 +632 x#1#47 +392 x#1#46 +171 x#1#45
  +33 x#1#44 +667 x#1#43 +955 x#1#42 +610 x#1#41 +576 x#1#40 +657 x#1#39
  +900 x#1#38 +433 x#1#37 +585 x#1#36 +384 x#1#35 +574 x#1#34 +869 x#1#33
  +969 x#1#32 +726 x#1#31 +901 x#1#30 +949 x#1#29 +310 x#1#28 +642 x#1#27
  +56 x#1#26 +731 x#1#25 +167 x#1#24 +327 x#1#23 +681 x#1#22 +442 x#1#21
  +238 x#1#20 +42 x#1#19 +969 x#1#18 +159 x#1#17 +392 x#1#16 +512 x#1#15
  +613 x#1#14 +850 x#1#13 +24 x#1#12 +219 x#1#11 +261 x#1#10 +27 x#1#9
  +897 x#1#8 +236 x#1#7 +530 x#1#6 +431 x#1#5 +395 x#1#4 +455 x#1#3
  +381 x#1#2 +51 x#1#1 <= 2952
 cap_3:
  +677 x#1#50 +450 x#1#49 +294 x#1#48 +54 x#1#47 +437 x#1#46 +622 x#1#45
  +897 x#1#44 +174 x#1#43 +161 x#1#42 +289 x#1#41 +237 x#1#40 +685 x#1#39
  +154 x#1#38 +756 x#1#37 +471 x#1#36 +656 x#1#35 +729 x#1#34 +26 x#1#33
  +151 x#1#32 +960 x#1#31 +635 x#1#30 +329 x#1#29 +871 x#1#28 +781 x#1#27
  +496 x#1#26 +662 x#1#25 +241 x#1#24 +549 x#1#23 +247 x#1#22 +779 x#1#21
  +492 x#1#20 +14 x#1#19 +339 x#1#18 +668 x#1#17 +711 x#1#16 +567 x#1#15
  +264 x#1#14 +149 x#1#13 +20 x#1#12 +579 x#1#11 +446 x#1#10 +678 x#1#9
  +574 x#1#8 +326 x#1#7 +613 x#1#6 +919 x#1#5 +843 x#1#4 +909 x#1#3
  +55 x#1#2 +67 x#1#1 <= 2318
 cap_4:
  +722 x#1#50 +751 x#1#49 +743 x#1#48 +982 x#1#47 +438 x#1#46 +753 x#1#45
  +283 x#1#44 +612 x#1#43 +68 x#1#42 +979 x#1#41 +997 x#1#40 +691 x#1#39
  +377 x#1#38 +136 x#1#37 +28 x#1#36 +327 x#1#35 +93 x#1#34 +229 x#1#33
  +136 x#1#32 +912 x#1#31 +809 x#1#30 +851 x#1#29 +796 x#1#28 +767 x#1#27
  +680 x#1#26 +379 x#1#25 +683 x#1#24 +629 x#1#23 +368 x#1#22 +889 x#1#21
  +76 x#1#20 +104 x#1#19 +239 x#1#18 +932 x#1#17 +279 x#1#16 +879 x#1#15
  +664 x#1#14 +266 x#1#13 +407 x#1#12 +242 x#1#11 +501 x#1#10 +294 x#1#9
  +752 x#1#8 +277 x#1#7 +396 x#1#6 +124 x#1#5 +56 x#1#4 +476 x#1#3
  +645 x#1#2 +48 x#1#1 <= 2727
 cap_5:
  +373 x#1#50 +741 x#1#49 +493 x#1#48 +585 x#1#47 +889 x#1#46 +977 x#1#45
  +202 x#1#44 +764 x#1#43 +315 x#1#42 +146 x#1#41 +574 x#1#40 +193 x#1#39
  +525 x#1#38 +569 x#1#37 +366 x#1#36 +12 x#1#35 +4 x#1#34 +214 x#1#33
  +359 x#1#32 +213 x#1#31 +48 x#1#30 +381 x#1#29 +59 x#1#28 +699 x#1#27
  +81 x#1#26 +92 x#1#25 +744 x#1#24 +890 x#1#23 +194 x#1#22 +91 x#1#21
  +792 x#1#20 +589 x#1#19 +889 x#1#18 +890 x#1#17 +348 x#1#16 +804 x#1#15
  +749 x#1#14 +462 x#1#13 +647 x#1#12 +23 x#1#11 +335 x#1#10 +796 x#1#9
  +264 x#1#8 +425 x#1#7 +961 x#1#6 +51 x#1#5 +72 x#1#4 +198 x#1#3
  +353 x#1#2 +102 x#1#1 <= 1756
 cap_6:
  +282 x#2#50 +536 x#2#49 +893 x#2#48 +196 x#2#47 +575 x#2#46 +659 x#2#45
  +843 x#2#44 +378 x#2#43 +842 x#2#42 +801 x#2#41 +413 x#2#40 +213 x#2#39
  +942 x#2#38 +23 x#2#37 +647 x#2#36 +682 x#2#35 +703 x#2#34 +477 x#2#33
  +117 x#2#32 +519 x#2#31 +522 x#2#30 +104 x#2#29 +520 x#2#28 +633 x#2#27
  +849 x#2#26 +562 x#2#25 +398 x#2#24 +292 x#2#23 +838 x#2#22 +244 x#2#21
  +286 x#2#20 +531 x#2#19 +603 x#2#18 +428 x#2#17 +257 x#2#16 +291 x#2#15
  +343 x#2#14 +446 x#2#13 +186 x#2#12 +420 x#2#11 +939 x#2#10 +71 x#2#9
  +695 x#2#8 +103 x#2#7 +816 x#2#6 +21 x#2#5 +901 x#2#4 +776 x#2#3
  +779 x#2#2 +80 x#2#1 <= 2914
 cap_7:
  +905 x#2#50 +233 x#2#49 +860 x#2#48 +632 x#2#47 +392 x#2#46 +171 x#2#45
  +33 x#2#44 +667 x#2#43 +955 x#2#42 +610 x#2#41 +576 x#2#40 +657 x#2#39
  +900 x#2#38 +433 x#2#37 +585 x#2#36 +384 x#2#35 +574 x#2#34 +869 x#2#33
  +969 x#2#32 +726 x#2#31 +901 x#2#30 +949 x#2#29 +310 x#2#28 +642 x#2#27
  +56 x#2#26 +731 x#2#25 +167 x#2#24 +327 x#2#23 +681 x#2#22 +442 x#2#21
  +238 x#2#20 +42 x#2#19 +969 x#2#18 +159 x#2#17 +392 x#2#16 +512 x#2#15
  +613 x#2#14 +850 x#2#13 +24 x#2#12 +219 x#2#11 +261 x#2#10 +27 x#2#9
  +897 x#2#8 +236 x#2#7 +530 x#2#6 +431 x#2#5 +395 x#2#4 +455 x#2#3
  +381 x#2#2 +51 x#2#1 <= 2859
 cap_8:
  +677 x#2#50 +450 x#2#49 +294 x#2#48 +54 x#2#47 +437 x#2#46 +622 x#2#45
  +897 x#2#44 +174 x#2#43 +161 x#2#42 +289 x#2#41 +237 x#2#40 +685 x#2#39
  +154 x#2#38 +756 x#2#37 +471 x#2#36 +656 x#2#35 +729 x#2#34 +26 x#2#33
  +151 x#2#32 +960 x#2#31 +635 x#2#30 +329 x#2#29 +871 x#2#28 +781 x#2#27
  +496 x#2#26 +662 x#2#25 +241 x#2#24 +549 x#2#23 +247 x#2#22 +779 x#2#21
  +492 x#2#20 +14 x#2#19 +339 x#2#18 +668 x#2#17 +711 x#2#16 +567 x#2#15
  +264 x#2#14 +149 x#2#13 +20 x#2#12 +579 x#2#11 +446 x#2#10 +678 x#2#9
  +574 x#2#8 +326 x#2#7 +613 x#2#6 +919 x#2#5 +843 x#2#4 +909 x#2#3
  +55 x#2#2 +67 x#2#1 <= 2522
 cap_9:
  +722 x#2#50 +751 x#2#49 +743 x#2#48 +982 x#2#47 +438 x#2#46 +753 x#2#45
  +283 x#2#44 +612 x#2#43 +68 x#2#42 +979 x#2#41 +997 x#2#40 +691 x#2#39
  +377 x#2#38 +136 x#2#37 +28 x#2#36 +327 x#2#35 +93 x#2#34 +229 x#2#33
  +136 x#2#32 +912 x#2#31 +809 x#2#30 +851 x#2#29 +796 x#2#28 +767 x#2#27
  +680 x#2#26 +379 x#2#25 +683 x#2#24 +629 x#2#23 +368 x#2#22 +889 x#2#21
  +76 x#2#20 +104 x#2#19 +239 x#2#18 +932 x#2#17 +279 x#2#16 +879 x#2#15
  +664 x#2#14 +266 x#2#13 +407 x#2#12 +242 x#2#11 +501 x#2#10 +294 x#2#9
  +752 x#2#8 +277 x#2#7 +396 x#2#6 +124 x#2#5 +56 x#2#4 +476 x#2#3
  +645 x#2#2 +48 x#2#1 <= 2024
 cap_10:
  +373 x#2#50 +741 x#2#49 +493 x#2#48 +585 x#2#47 +889 x#2#46 +977 x#2#45
  +202 x#2#44 +764 x#2#43 +315 x#2#42 +146 x#2#41 +574 x#2#40 +193 x#2#39
  +525 x#2#38 +569 x#2#37 +366 x#2#36 +12 x#2#35 +4 x#2#34 +214 x#2#33
  +359 x#2#32 +213 x#2#31 +48 x#2#30 +381 x#2#29 +59 x#2#28 +699 x#2#27
  +81 x#2#26 +92 x#2#25 +744 x#2#24 +890 x#2#23 +194 x#2#22 +91 x#2#21
  +792 x#2#20 +589 x#2#19 +889 x#2#18 +890 x#2#17 +348 x#2#16 +804 x#2#15
  +749 x#2#14 +462 x#2#13 +647 x#2#12 +23 x#2#11 +335 x#2#10 +796 x#2#9
  +264 x#2#8 +425 x#2#7 +961 x#2#6 +51 x#2#5 +72 x#2#4 +198 x#2#3
  +353 x#2#2 +102 x#2#1 <= 1831
 cap_11:
  +282 x#3#50 +536 x#3#49 +893 x#3#48 +196 x#3#47 +575 x#3#46 +659 x#3#45
  +843 x#3#44 +378 x#3#43 +842 x#3#42 +801 x#3#41 +413 x#3#40 +213 x#3#39
  +942 x#3#38 +23 x#3#37 +647 x#3#36 +682 x#3#35 +703 x#3#34 +477 x#3#33
  +117 x#3#32 +519 x#3#31 +522 x#3#30 +104 x#3#29 +520 x#3#28 +633 x#3#27
  +849 x#3#26 +562 x#3#25 +398 x#3#24 +292 x#3#23 +838 x#3#22 +244 x#3#21
  +286 x#3#20 +531 x#3#19 +603 x#3#18 +428 x#3#17 +257 x#3#16 +291 x#3#15
  +343 x#3#14 +446 x#3#13 +186 x#3#12 +420 x#3#11 +939 x#3#10 +71 x#3#9
  +695 x#3#8 +103 x#3#7 +816 x#3#6 +21 x#3#5 +901 x#3#4 +776 x#3#3
  +779 x#3#2 +80 x#3#1 <= 2949
 cap_12:
  +905 x#3#50 +233 x#3#49 +860 x#3#48 +632 x#3#47 +392 x#3#46 +171 x#3#45
  +33 x#3#44 +667 x#3#43 +955 x#3#42 +610 x#3#41 +576 x#3#40 +657 x#3#39
  +900 x#3#38 +433 x#3#37 +585 x#3#36 +384 x#3#35 +574 x#3#34 +869 x#3#33
  +969 x#3#32 +726 x#3#31 +901 x#3#30 +949 x#3#29 +310 x#3#28 +642 x#3#27
  +56 x#3#26 +731 x#3#25 +167 x#3#24 +327 x#3#23 +681 x#3#22 +442 x#3#21
  +238 x#3#20 +42 x#3#19 +969 x#3#18 +159 x#3#17 +392 x#3#16 +512 x#3#15
  +613 x#3#14 +850 x#3#13 +24 x#3#12 +219 x#3#11 +261 x#3#10 +27 x#3#9
  +897 x#3#8 +236 x#3#7 +530 x#3#6 +431 x#3#5 +395 x#3#4 +455 x#3#3
  +381 x#3#2 +51 x#3#1 <= 2386
 cap_13:
  +677 x#3#50 +450 x#3#49 +294 x#3#48 +54 x#3#47 +437 x#3#46 +622 x#3#45
  +897 x#3#44 +174 x#3#43 +161 x#3#42 +289 x#3#41 +237 x#3#40 +685 x#3#39
  +154 x#3#38 +756 x#3#37 +471 x#3#36 +656 x#3#35 +729 x#3#34 +26 x#3#33
  +151 x#3#32 +960 x#3#31 +635 x#3#30 +329 x#3#29 +871 x#3#28 +781 x#3#27
  +496 x#3#26 +662 x#3#25 +241 x#3#24 +549 x#3#23 +247 x#3#22 +779 x#3#21
  +492 x#3#20 +14 x#3#19 +339 x#3#18 +668 x#3#17 +711 x#3#16 +567 x#3#15
  +264 x#3#14 +149 x#3#13 +20 x#3#12 +579 x#3#11 +446 x#3#10 +678 x#3#9
  +574 x#3#8 +326 x#3#7 +613 x#3#6 +919 x#3#5 +843 x#3#4 +909 x#3#3
  +55 x#3#2 +67 x#3#1 <= 1921
 cap_14:
  +722 x#3#50 +751 x#3#49 +743 x#3#48 +982 x#3#47 +438 x#3#46 +753 x#3#45
  +283 x#3#44 +612 x#3#43 +68 x#3#42 +979 x#3#41 +997 x#3#40 +691 x#3#39
  +377 x#3#38 +136 x#3#37 +28 x#3#36 +327 x#3#35 +93 x#3#34 +229 x#3#33
  +136 x#3#32 +912 x#3#31 +809 x#3#30 +851 x#3#29 +796 x#3#28 +767 x#3#27
  +680 x#3#26 +379 x#3#25 +683 x#3#24 +629 x#3#23 +368 x#3#22 +889 x#3#21
  +76 x#3#20 +104 x#3#19 +239 x#3#18 +932 x#3#17 +279 x#3#16 +879 x#3#15
  +664 x#3#14 +266 x#3#13 +407 x#3#12 +242 x#3#11 +501 x#3#10 +294 x#3#9
  +752 x#3#8 +277 x#3#7 +396 x#3#6 +124 x#3#5 +56 x#3#4 +476 x#3#3
  +645 x#3#2 +48 x#3#1 <= 2180
 cap_15:
  +373 x#3#50 +741 x#3#49 +493 x#3#48 +585 x#3#47 +889 x#3#46 +977 x#3#45
  +202 x#3#44 +764 x#3#43 +315 x#3#42 +146 x#3#41 +574 x#3#40 +193 x#3#39
  +525 x#3#38 +569 x#3#37 +366 x#3#36 +12 x#3#35 +4 x#3#34 +214 x#3#33
  +359 x#3#32 +213 x#3#31 +48 x#3#30 +381 x#3#29 +59 x#3#28 +699 x#3#27
  +81 x#3#26 +92 x#3#25 +744 x#3#24 +890 x#3#23 +194 x#3#22 +91 x#3#21
  +792 x#3#20 +589 x#3#19 +889 x#3#18 +890 x#3#17 +348 x#3#16 +804 x#3#15
  +749 x#3#14 +462 x#3#13 +647 x#3#12 +23 x#3#11 +335 x#3#10 +796 x#3#9
  +264 x#3#8 +425 x#3#7 +961 x#3#6 +51 x#3#5 +72 x#3#4 +198 x#3#3
  +353 x#3#2 +102 x#3#1 <= 2574
 cap_16:
  +282 x#4#50 +536 x#4#49 +893 x#4#48 +196 x#4#47 +575 x#4#46 +659 x#4#45
  +843 x#4#44 +378 x#4#43 +842 x#4#42 +801 x#4#41 +413 x#4#40 +213 x#4#39
  +942 x#4#38 +23 x#4#37 +647 x#4#36 +682 x#4#35 +703 x#4#34 +477 x#4#33
  +117 x#4#32 +519 x#4#31 +522 x#4#30 +104 x#4#29 +520 x#4#28 +633 x#4#27
  +849 x#4#26 +562 x#4#25 +398 x#4#24 +292 x#4#23 +838 x#4#22 +244 x#4#21
  +286 x#4#20 +531 x#4#19 +603 x#4#18 +428 x#4#17 +257 x#4#16 +291 x#4#15
  +343 x#4#14 +446 x#4#13 +186 x#4#12 +420 x#4#11 +939 x#4#10 +71 x#4#9
  +695 x#4#8 +103 x#4#7 +816 x#4#6 +21 x#4#5 +901 x#4#4 +776 x#4#3
  +779 x#4#2 +80 x#4#1 <= 2895
 cap_17:
  +905 x#4#50 +233 x#4#49 +860 x#4#48 +632 x#4#47 +392 x#4#46 +171 x#4#45
  +33 x#4#44 +667 x#4#43 +955 x#4#42 +610 x#4#41 +576 x#4#40 +657 x#4#39
  +900 x#4#38 +433 x#4#37 +585 x#4#36 +384 x#4#35 +574 x#4#34 +869 x#4#33
  +969 x#4#32 +726 x#4#31 +901 x#4#30 +949 x#4#29 +310 x#4#28 +642 x#4#27
  +56 x#4#26 +731 x#4#25 +167 x#4#24 +327 x#4#23 +681 x#4#22 +442 x#4#21
  +238 x#4#20 +42 x#4#19 +969 x#4#18 +159 x#4#17 +392 x#4#16 +512 x#4#15
  +613 x#4#14 +850 x#4#13 +24 x#4#12 +219 x#4#11 +261 x#4#10 +27 x#4#9
  +897 x#4#8 +236 x#4#7 +530 x#4#6 +431 x#4#5 +395 x#4#4 +455 x#4#3
  +381 x#4#2 +51 x#4#1 <= 2708
 cap_18:
  +677 x#4#50 +450 x#4#49 +294 x#4#48 +54 x#4#47 +437 x#4#46 +622 x#4#45
  +897 x#4#44 +174 x#4#43 +161 x#4#42 +289 x#4#41 +237 x#4#40 +685 x#4#39
  +154 x#4#38 +756 x#4#37 +471 x#4#36 +656 x#4#35 +729 x#4#34 +26 x#4#33
  +151 x#4#32 +960 x#4#31 +635 x#4#30 +329 x#4#29 +871 x#4#28 +781 x#4#27
  +496 x#4#26 +662 x#4#25 +241 x#4#24 +549 x#4#23 +247 x#4#22 +779 x#4#21
  +492 x#4#20 +14 x#4#19 +339 x#4#18 +668 x#4#17 +711 x#4#16 +567 x#4#15
  +264 x#4#14 +149 x#4#13 +20 x#4#12 +579 x#4#11 +446 x#4#10 +678 x#4#9
  +574 x#4#8 +326 x#4#7 +613 x#4#6 +919 x#4#5 +843 x#4#4 +909 x#4#3
  +55 x#4#2 +67 x#4#1 <= 2681
 cap_19:
  +722 x#4#50 +751 x#4#49 +743 x#4#48 +982 x#4#47 +438 x#4#46 +753 x#4#45
  +283 x#4#44 +612 x#4#43 +68 x#4#42 +979 x#4#41 +997 x#4#40 +691 x#4#39
  +377 x#4#38 +136 x#4#37 +28 x#4#36 +327 x#4#35 +93 x#4#34 +229 x#4#33
  +136 x#4#32 +912 x#4#31 +809 x#4#30 +851 x#4#29 +796 x#4#28 +767 x#4#27
  +680 x#4#26 +379 x#4#25 +683 x#4#24 +629 x#4#23 +368 x#4#22 +889 x#4#21
  +76 x#4#20 +104 x#4#19 +239 x#4#18 +932 x#4#17 +279 x#4#16 +879 x#4#15
  +664 x#4#14 +266 x#4#13 +407 x#4#12 +242 x#4#11 +501 x#4#10 +294 x#4#9
  +752 x#4#8 +277 x#4#7 +396 x#4#6 +124 x#4#5 +56 x#4#4 +476 x#4#3
  +645 x#4#2 +48 x#4#1 <= 2181
 cap_20:
  +373 x#4#50 +741 x#4#49 +493 x#4#48 +585 x#4#47 +889 x#4#46 +977 x#4#45
  +202 x#4#44 +764 x#4#43 +315 x#4#42 +146 x#4#41 +574 x#4#40 +193 x#4#39
  +525 x#4#38 +569 x#4#37 +366 x#4#36 +12 x#4#35 +4 x#4#34 +214 x#4#33
  +359 x#4#32 +213 x#4#31 +48 x#4#30 +381 x#4#29 +59 x#4#28 +699 x#4#27
  +81 x#4#26 +92 x#4#25 +744 x#4#24 +890 x#4#23 +194 x#4#22 +91 x#4#21
  +792 x#4#20 +589 x#4#19 +889 x#4#18 +890 x#4#17 +348 x#4#16 +804 x#4#15
  +749 x#4#14 +462 x#4#13 +647 x#4#12 +23 x#4#11 +335 x#4#10 +796 x#4#9
  +264 x#4#8 +425 x#4#7 +961 x#4#6 +51 x#4#5 +72 x#4#4 +198 x#4#3
  +353 x#4#2 +102 x#4#1 <= 2255
 cap_21:
  +282 x#5#50 +536 x#5#49 +893 x#5#48 +196 x#5#47 +575 x#5#46 +659 x#5#45
  +843 x#5#44 +378 x#5#43 +842 x#5#42 +801 x#5#41 +413 x#5#40 +213 x#5#39
  +942 x#5#38 +23 x#5#37 +647 x#5#36 +682 x#5#35 +703 x#5#34 +477 x#5#33
  +117 x#5#32 +519 x#5#31 +522 x#5#30 +104 x#5#29 +520 x#5#28 +633 x#5#27
  +849 x#5#26 +562 x#5#25 +398 x#5#24 +292 x#5#23 +838 x#5#22 +244 x#5#21
  +286 x#5#20 +531 x#5#19 +603 x#5#18 +428 x#5#17 +257 x#5#16 +291 x#5#15
  +343 x#5#14 +446 x#5#13 +186 x#5#12 +420 x#5#11 +939 x#5#10 +71 x#5#9
  +695 x#5#8 +103 x#5#7 +816 x#5#6 +21 x#5#5 +901 x#5#4 +776 x#5#3
  +779 x#5#2 +80 x#5#1 <= 6762
 cap_22:
  +905 x#5#50 +233 x#5#49 +860 x#5#48 +632 x#5#47 +392 x#5#46 +171 x#5#45
  +33 x#5#44 +667 x#5#43 +955 x#5#42 +610 x#5#41 +576 x#5#40 +657 x#5#39
  +900 x#5#38 +433 x#5#37 +585 x#5#36 +384 x#5#35 +574 x#5#34 +869 x#5#33
  +969 x#5#32 +726 x#5#31 +901 x#5#30 +949 x#5#29 +310 x#5#28 +642 x#5#27
  +56 x#5#26 +731 x#5#25 +167 x#5#24 +327 x#5#23 +681 x#5#22 +442 x#5#21
  +238 x#5#20 +42 x#5#19 +969 x#5#18 +159 x#5#17 +392 x#5#16 +512 x#5#15
  +613 x#5#14 +850 x#5#13 +24 x#5#12 +219 x#5#11 +261 x#5#10 +27 x#5#9
  +897 x#5#8 +236 x#5#7 +530 x#5#6 +431 x#5#5 +395 x#5#4 +455 x#5#3
  +381 x#5#2 +51 x#5#1 <= 7057
 cap_23:
  +677 x#5#50 +450 x#5#49 +294 x#5#48 +54 x#5#47 +437 x#5#46 +622 x#5#45
  +897 x#5#44 +174 x#5#43 +161 x#5#42 +289 x#5#41 +237 x#5#40 +685 x#5#39
  +154 x#5#38 +756 x#5#37 +471 x#5#36 +656 x#5#35 +729 x#5#34 +26 x#5#33
  +151 x#5#32 +960 x#5#31 +635 x#5#30 +329 x#5#29 +871 x#5#28 +781 x#5#27
  +496 x#5#26 +662 x#5#25 +241 x#5#24 +549 x#5#23 +247 x#5#22 +779 x#5#21
  +492 x#5#20 +14 x#5#19 +339 x#5#18 +668 x#5#17 +711 x#5#16 +567 x#5#15
  +264 x#5#14 +149 x#5#13 +20 x#5#12 +579 x#5#11 +446 x#5#10 +678 x#5#9
  +574 x#5#8 +326 x#5#7 +613 x#5#6 +919 x#5#5 +843 x#5#4 +909 x#5#3
  +55 x#5#2 +67 x#5#1 <= 7131
 cap_24:
  +722 x#5#50 +751 x#5#49 +743 x#5#48 +982 x#5#47 +438 x#5#46 +753 x#5#45
  +283 x#5#44 +612 x#5#43 +68 x#5#42 +979 x#5#41 +997 x#5#40 +691 x#5#39
  +377 x#5#38 +136 x#5#37 +28 x#5#36 +327 x#5#35 +93 x#5#34 +229 x#5#33
  +136 x#5#32 +912 x#5#31 +809 x#5#30 +851 x#5#29 +796 x#5#28 +767 x#5#27
  +680 x#5#26 +379 x#5#25 +683 x#5#24 +629 x#5#23 +368 x#5#22 +889 x#5#21
  +76 x#5#20 +104 x#5#19 +239 x#5#18 +932 x#5#17 +279 x#5#16 +879 x#5#15
  +664 x#5#14 +266 x#5#13 +407 x#5#12 +242 x#5#11 +501 x#5#10 +294 x#5#9
  +752 x#5#8 +277 x#5#7 +396 x#5#6 +124 x#5#5 +56 x#5#4 +476 x#5#3
  +645 x#5#2 +48 x#5#1 <= 7827
 cap_25:
  +373 x#5#50 +741 x#5#49 +493 x#5#48 +585 x#5#47 +889 x#5#46 +977 x#5#45
  +202 x#5#44 +764 x#5#43 +315 x#5#42 +146 x#5#41 +574 x#5#40 +193 x#5#39
  +525 x#5#38 +569 x#5#37 +366 x#5#36 +12 x#5#35 +4 x#5#34 +214 x#5#33
  +359 x#5#32 +213 x#5#31 +48 x#5#30 +381 x#5#29 +59 x#5#28 +699 x#5#27
  +81 x#5#26 +92 x#5#25 +744 x#5#24 +890 x#5#23 +194 x#5#22 +91 x#5#21
  +792 x#5#20 +589 x#5#19 +889 x#5#18 +890 x#5#17 +348 x#5#16 +804 x#5#15
  +749 x#5#14 +462 x#5#13 +647 x#5#12 +23 x#5#11 +335 x#5#10 +796 x#5#9
  +264 x#5#8 +425 x#5#7 +961 x#5#6 +51 x#5#5 +72 x#5#4 +198 x#5#3
  +353 x#5#2 +102 x#5#1 <= 6564
 one_1:
  + x#5#1 + x#4#1 + x#3#1 + x#2#1 + x#1#1 <= 1
 one_2:
  + x#5#2 + x#4#2 + x#3#2 + x#2#2 + x#1#2 <= 1
 one_3:
  + x#5#3 + x#4#3 + x#3#3 + x#2#3 + x#1#3 <= 1
 one_4:
  + x#5#4 + x#4#4 + x#3#4 + x#2#4 + x#1#4 <= 1
 one_5:
  + x#5#5 + x#4#5 + x#3#5 + x#2#5 + x#1#5 <= 1
 one_6:
  + x#5#6 + x#4#6 + x#3#6 + x#2#6 + x#1#6 <= 1
 one_7:
  + x#5#7 + x#4#7 + x#3#7 + x#2#7 + x#1#7 <= 1
 one_8:
  + x#5#8 + x#4#8 + x#3#8 + x#2#8 + x#1#8 <= 1
 one_9:
  + x#5#9 + x#4#9 + x#3#9 + x#2#9 + x#1#9 <= 1
 one_10:
  + x#5#10 + x#4#10 + x#3#10 + x#2#10 + x#1#10 <= 1
 one_11:
  + x#5#11 + x#4#11 + x#3#11 + x#2#11 + x#1#11 <= 1
 one_12:
  + x#5#12 + x#4#12 + x#3#12 + x#2#12 + x#1#12 <= 1
 one_13:
  + x#5#13 + x#4#13 + x#3#13 + x#2#13 + x#1#13 <= 1
 one_14:
  + x#5#14 + x#4#14 + x#3#14 + x#2#14 + x#1#14 <= 1
 one_15:
  + x#5#15 + x#4#15 + x#3#15 + x#2#15 + x#1#15 <= 1
 one_16:
  + x#5#16 + x#4#16 + x#3#16 + x#2#16 + x#1#16 <= 1
 one_17:
  + x#5#17 + x#4#17 + x#3#17 + x#2#17 + x#1#17 <= 1
 one_18:
  + x#5#18 + x#4#18 + x#3#18 + x#2#18 + x#1#18 <= 1
 one_19:
  + x#5#19 + x#4#19 + x#3#19 + x#2#19 + x#1#19 <= 1
 one_20:
  + x#5#20 + x#4#20 + x#3#20 + x#2#20 + x#1#20 <= 1
 one_21:
  + x#5#21 + x#4#21 + x#3#21 + x#2#21 + x#1#21 <= 1
 one_22:
  + x#5#22 + x#4#22 + x#3#22 + x#2#22 + x#1#22 <= 1
 one_23:
  + x#5#23 + x#4#23 + x#3#23 + x#2#23 + x#1#23 <= 1
 one_24:
  + x#5#24 + x#4#24 + x#3#24 + x#2#24 + x#1#24 <= 1
 one_25:
  + x#5#25 + x#4#25 + x#3#25 + x#2#25 + x#1#25 <= 1
 one_26:
  + x#5#26 + x#4#26 + x#3#26 + x#2#26 + x#1#26 <= 1
 one_27:
  + x#5#27 + x#4#27 + x#3#27 + x#2#27 + x#1#27 <= 1
 one_28:
  + x#5#28 + x#4#28 + x#3#28 + x#2#28 + x#1#28 <= 1
 one_29:
  + x#5#29 + x#4#29 + x#3#29 + x#2#29 + x#1#29 <= 1
 one_30:
  + x#5#30 + x#4#30 + x#3#30 + x#2#30 + x#1#30 <= 1
 one_31:
  + x#5#31 + x#4#31 + x#3#31 + x#2#31 + x#1#31 <= 1
 one_32:
  + x#5#32 + x#4#32 + x#3#32 + x#2#32 + x#1#32 <= 1
 one_33:
  + x#5#33 + x#4#33 + x#3#33 + x#2#33 + x#1#33 <= 1
 one_34:
  + x#5#34 + x#4#34 + x#3#34 + x#2#34 + x#1#34 <= 1
 one_35:
  + x#5#35 + x#4#35 + x#3#35 + x#2#35 + x#1#35 <= 1
 one_36:
  + x#5#36 + x#4#36 + x#3#36 + x#2#36 + x#1#36 <= 1
 one_37:
  + x#5#37 + x#4#37 + x#3#37 + x#2#37 + x#1#37 <= 1
 one_38:
  + x#5#38 + x#4#38 + x#3#38 + x#2#38 + x#1#38 <= 1
 one_39:
  + x#5#39 + x#4#39 + x#3#39 + x#2#39 + x#1#39 <= 1
 one_40:
  + x#5#40 + x#4#40 + x#3#40 + x#2#40 + x#1#40 <= 1
 one_41:
  + x#5#41 + x#4#41 + x#3#41 + x#2#41 + x#1#41 <= 1
 one_42:
  + x#5#42 + x#4#42 + x#3#42 + x#2#42 + x#1#42 <= 1
 one_43:
  + x#5#43 + x#4#43 + x#3#43 + x#2#43 + x#1#43 <= 1
 one_44:
  + x#5#44 + x#4#44 + x#3#44 + x#2#44 + x#1#44 <= 1
 one_45:
  + x#5#45 + x#4#45 + x#3#45 + x#2#45 + x#1#45 <= 1
 one_46:
  + x#5#46 + x#4#46 + x#3#46 + x#2#46 + x#1#46 <= 1
 one_47:
  + x#5#47 + x#4#47 + x#3#47 + x#2#47 + x#1#47 <= 1
 one_48:
  + x#5#48 + x#4#48 + x#3#48 + x#2#48 + x#1#48 <= 1
 one_49:
  + x#5#49 + x#4#49 + x#3#49 + x#2#49 + x#1#49 <= 1
 one_50:
  + x#5#50 + x#4#50 + x#3#50 + x#2#50 + x#1#50 <= 1
Bounds
 0 <= x#1#1 <= 1
 0 <= x#1#2 <= 1
 0 <= x#1#3 <= 1
 0 <= x#1#4 <= 1
 0 <= x#1#5 <= 1
 0 <= x#1#6 <= 1
 0 <= x#1#7 <= 1
 0 <= x#1#8 <= 1
 0 <= x#1#9 <= 1
 0 <= x#1#10 <= 1
 0 <= x#1#11 <= 1
 0 <= x#1#12 <= 1
 0 <= x#1#13 <= 1
 0 <= x#1#14 <= 1
 0 <= x#1#15 <= 1
 0 <= x#1#16 <= 1
 0 <= x#1#17 <= 1
 0 <= x#1#18 <= 1
 0 <= x#1#19 <= 1
 0 <= x#1#20 <= 1
 0 <= x#1#21 <= 1
 0 <= x#1#22 <= 1
 0 <= x#1#23 <= 1
 0 <= x#1#24 <= 1
 0 <= x#1#25 <= 1
 0 <= x#1#26 <= 1
 0 <= x#1#27 <= 1
 0 <= x#1#28 <= 1
 0 <= x#1#29 <= 1
 0 <= x#1#30 <= 1
 0 <= x#1#31 <= 1
 0 <= x#1#32 <= 1
 0 <= x#1#33 <= 1
 0 <= x#1#34 <= 1
 0 <= x#1#35 <= 1
 0 <= x#1#36 <= 1
 0 <= x#1#37 <= 1
 0 <= x#1#38 <= 1
 0 <= x#1#39 <= 1
 0 <= x#1#40 <= 1
 0 <= x#1#41 <= 1
 0 <= x#1#42 <= 1
 0 <= x#1#43 <= 1
 0 <= x#1#44 <= 1
 0 <= x#1#45 <= 1
 0 <= x#1#46 <= 1
 0 <= x#1#47 <= 1
 0 <= x#1#48 <= 1
 0 <= x#1#49 <= 1
 0 <= x#1#50 <= 1
 0 <= x#2#1 <= 1
 0 <= x#2#2 <= 1
 0 <= x#2#3 <= 1
 0 <= x#2#4 <= 1
 0 <= x#2#5 <= 1
 0 <= x#2#6 <= 1
 0 <= x#2#7 <= 1
 0 <= x#2#8 <= 1
 0 <= x#2#9 <= 1
 0 <= x#2#10 <= 1
 0 <= x#2#11 <= 1
 0 <= x#2#12 <= 1
 0 <= x#2#13 <= 1
 0 <= x#2#14 <= 1
 0 <= x#2#15 <= 1
 0 <= x#2#16 <= 1
 0 <= x#2#17 <= 1
 0 <= x#2#18 <= 1
 0 <= x#2#19 <= 1
 0 <= x#2#20 <= 1
 0 <= x#2#21 <= 1
 0 <= x#2#22 <= 1
 0 <= x#2#23 <= 1
 0 <= x#2#24 <= 1
 0 <= x#2#25 <= 1
 0 <= x#2#26 <= 1
 0 <= x#2#27 <= 1
 0 <= x#2#28 <= 1
 0 <= x#2#29 <= 1
 0 <= x#2#30 <= 1
 0 <= x#2#31 <= 1
 0 <= x#2#32 <= 1
 0 <= x#2#33 <= 1
 0 <= x#2#34 <= 1
 0 <= x#2#35 <= 1
 0 <= x#2#36 <= 1
 0 <= x#2#37 <= 1
 0 <= x#2#38 <= 1
 0 <= x#2#39 <= 1
 0 <= x#2#40 <= 1
 0 <= x#2#41 <= 1
 0 <= x#2#42 <= 1
 0 <= x#2#43 <= 1
 0 <= x#2#44 <= 1
 0 <= x#2#45 <= 1
 0 <= x#2#46 <= 1
 0 <= x#2#47 <= 1
 0 <= x#2#48 <= 1
 0 <= x#2#49 <= 1
 0 <= x#2#50 <= 1
 0 <= x#3#1 <= 1
 0 <= x#3#2 <= 1
 0 <= x#3#3 <= 1
 0 <= x#3#4 <= 1
 0 <= x#3#5 <= 1
 0 <= x#3#6 <= 1
 0 <= x#3#7 <= 1
 0 <= x#3#8 <= 1
 0 <= x#3#9 <= 1
 0 <= x#3#10 <= 1
 0 <= x#3#11 <= 1
 0 <= x#3#12 <= 1
 0 <= x#3#13 <= 1
 0 <= x#3#14 <= 1
 0 <= x#3#15 <= 1
 0 <= x#3#16 <= 1
 0 <= x#3#17 <= 1
 0 <= x#3#18 <= 1
 0 <= x#3#19 <= 1
 0 <= x#3#20 <= 1
 0 <= x#3#21 <= 1
 0 <= x#3#22 <= 1
 0 <= x#3#23 <= 1
 0 <= x#3#24 <= 1
 0 <= x#3#25 <= 1
 0 <= x#3#26 <= 1
 0 <= x#3#27 <= 1
 0 <= x#3#28 <= 1
 0 <= x#3#29 <= 1
 0 <= x#3#30 <= 1
 0 <= x#3#31 <= 1
 0 <= x#3#32 <= 1
 0 <= x#3#33 <= 1
 0 <= x#3#34 <= 1
 0 <= x#3#35 <= 1
 0 <= x#3#36 <= 1
 0 <= x#3#37 <= 1
 0 <= x#3#38 <= 1
 0 <= x#3#39 <= 1
 0 <= x#3#40 <= 1
 0 <= x#3#41 <= 1
 0 <= x#3#42 <= 1
 0 <= x#3#43 <= 1
 0 <= x#3#44 <= 1
 0 <= x#3#45 <= 1
 0 <= x#3#46 <= 1
 0 <= x#3#47 <= 1
 0 <= x#3#48 <= 1
 0 <= x#3#49 <= 1
 0 <= x#3#50 <= 1
 0 <= x#4#1 <= 1
 0 <= x#4#2 <= 1
 0 <= x#4#3 <= 1
 0 <= x#4#4 <= 1
 0 <= x#4#5 <= 1
 0 <= x#4#6 <= 1
 0 <= x#4#7 <= 1
 0 <= x#4#8 <= 1
 0 <= x#4#9 <= 1
 0 <= x#4#10 <= 1
 0 <= x#4#11 <= 1
 0 <= x#4#12 <= 1
 0 <= x#4#13 <= 1
 0 <= x#4#14 <= 1
 0 <= x#4#15 <= 1
 0 <= x#4#16 <= 1
 0 <= x#4#17 <= 1
 0 <= x#4#18 <= 1
 0 <= x#4#19 <= 1
 0 <= x#4#20 <= 1
 0 <= x#4#21 <= 1
 0 <= x#4#22 <= 1
 0 <= x#4#23 <= 1
 0 <= x#4#24 <= 1
 0 <= x#4#25 <= 1
 0 <= x#4#26 <= 1
 0 <= x#4#27 <= 1
 0 <= x#4#28 <= 1
 0 <= x#4#29 <= 1
 0 <= x#4#30 <= 1
 0 <= x#4#31 <= 1
 0 <= x#4#32 <= 1
 0 <= x#4#33 <= 1
 0 <= x#4#34 <= 1
 0 <= x#4#35 <= 1
 0 <= x#4#36 <= 1
 0 <= x#4#37 <= 1
 0 <= x#4#38 <= 1
 0 <= x#4#39 <= 1
 0 <= x#4#40 <= 1
 0 <= x#4#41 <= 1
 0 <= x#4#42 <= 1
 0 <= x#4#43 <= 1
 0 <= x#4#44 <= 1
 0 <= x#4#45 <= 1
 0 <= x#4#46 <= 1
 0 <= x#4#47 <= 1
 0 <= x#4#48 <= 1
 0 <= x#4#49 <= 1
 0 <= x#4#50 <= 1
 0 <= x#5#1 <= 1
 0 <= x#5#2 <= 1
 0 <= x#5#3 <= 1
 0 <= x#5#4 <= 1
 0 <= x#5#5 <= 1
 0 <= x#5#6 <= 1
 0 <= x#5#7 <= 1
 0 <= x#5#8 <= 1
 0 <= x#5#9 <= 1
 0 <= x#5#10 <= 1
 0 <= x#5#11 <= 1
 0 <= x#5#12 <= 1
 0 <= x#5#13 <= 1
 0 <= x#5#14 <= 1
 0 <= x#5#15 <= 1
 0 <= x#5#16 <= 1
 0 <= x#5#17 <= 1
 0 <= x#5#18 <= 1
 0 <= x#5#19 <= 1
 0 <= x#5#20 <= 1
 0 <= x#5#21 <= 1
 0 <= x#5#22 <= 1
 0 <= x#5#23 <= 1
 0 <= x#5#24 <= 1
 0 <= x#5#25 <= 1
 0 <= x#5#26 <= 1
 0 <= x#5#27 <= 1
 0 <= x#5#28 <= 1
 0 <= x#5#29 <= 1
 0 <= x#5#30 <= 1
 0 <= x#5#31 <= 1
 0 <= x#5#32 <= 1
 0 <= x#5#33 <= 1
 0 <= x#5#34 <= 1
 0 <= x#5#35 <= 1
 0 <= x#5#36 <= 1
 0 <= x#5#37 <= 1
 0 <= x#5#38 <= 1
 0 <= x#5#39 <= 1
 0 <= x#5#40 <= 1
 0 <= x#5#41 <= 1
 0 <= x#5#42 <= 1
 0 <= x#5#43 <= 1
 0 <= x#5#44 <= 1
 0 <= x#5#45 <= 1
 0 <= x#5#46 <= 1
 0 <= x#5#47 <= 1
 0 <= x#5#48 <= 1
 0 <= x#5#49 <= 1
 0 <= x#5#50 <= 1
General
 x#1#1
 x#1#2
 x#1#3
 x#1#4
 x#1#5
 x#1#6
 x#1#7
 x#1#8
 x#1#9
 x#1#10
 x#1#11
 x#1#12
 x#1#13
 x#1#14
 x#1#15
 x#1#16
 x#1#17
 x#1#18
 x#1#19
 x#1#20
 x#1#21
 x#1#22
 x#1#23
 x#1#24
 x#1#25
 x#1#26
 x#1#27
 x#1#28
 x#1#29
 x#1#30
 x#1#31
 x#1#32
 x#1#33
 x#1#34
 x#1#35
 x#1#36
 x#1#37
 x#1#38
 x#1#39
 x#1#40
 x#1#41
 x#1#42
 x#1#43
 x#1#44
 x#1#45
 x#1#46
 x#1#47
 x#1#48
 x#1#49
 x#1#50
 x#2#1
 x#2#2
 x#2#3
 x#2#4
 x#2#5
 x#2#6
 x#2#7
 x#2#8
 x#2#9
 x#2#10
 x#2#11
 x#2#12
 x#2#13
 x#2#14
 x#2#15
 x#2#16
 x#2#17
 x#2#18
 x#2#19
 x#2#20
 x#2#21
 x#2#22
 x#2#23
 x#2#24
 x#2#25
 x#2#26
 x#2#27
 x#2#28
 x#2#29
 x#2#30
 x#2#31
 x#2#32
 x#2#33
 x#2#34
 x#2#35
 x#2#36
 x#2#37
 x#2#38
 x#2#39
 x#2#40
 x#2#41
 x#2#42
 x#2#43
 x#2#44
 x#2#45
 x#2#46
 x#2#47
 x#2#48
 x#2#49
 x#2#50
 x#3#1
 x#3#2
 x#3#3
 x#3#4
 x#3#5
 x#3#6
 x#3#7
 x#3#8
 x#3#9
 x#3#10
 x#3#11
 x#3#12
 x#3#13
 x#3#14
 x#3#15
 x#3#16
 x#3#17
 x#3#18
 x#3#19
 x#3#20
 x#3#21
 x#3#22
 x#3#23
 x#3#24
 x#3#25
 x#3#26
 x#3#27
 x#3#28
 x#3#29
 x#3#30
 x#3#31
 x#3#32
 x#3#33
 x#3#34
 x#3#35
 x#3#36
 x#3#37
 x#3#38
 x#3#39
 x#3#40
 x#3#41
 x#3#42
 x#3#43
 x#3#44
 x#3#45
 x#3#46
 x#3#47
 x#3#48
 x#3#49
 x#3#50
 x#4#1
 x#4#2
 x#4#3
 x#4#4
 x#4#5
 x#4#6
 x#4#7
 x#4#8
 x#4#9
 x#4#10
 x#4#11
 x#4#12
 x#4#13
 x#4#14
 x#4#15
 x#4#16
 x#4#17
 x#4#18
 x#4#19
 x#4#20
 x#4#21
 x#4#22
 x#4#23
 x#4#24
 x#4#25
 x#4#26
 x#4#27
 x#4#28
 x#4#29
 x#4#30
 x#4#31
 x#4#32
 x#4#33
 x#4#34
 x#4#35
 x#4#36
 x#4#37
 x#4#38
 x#4#39
 x#4#40
 x#4#41
 x#4#42
 x#4#43
 x#4#44
 x#4#45
 x#4#46
 x#4#47
 x#4#48
 x#4#49
 x#4#50
 x#5#1
 x#5#2
 x#5#3
 x#5#4
 x#5#5
 x#5#6
 x#5#7
 x#5#8
 x#5#9
 x#5#10
 x#5#11
 x#5#12
 x#5#13
 x#5#14
 x#5#15
 x#5#16
 x#5#17
 x#5#18
 x#5#19
 x#5#20
 x#5#21
 x#5#22
 x#5#23
 x#5#24
 x#5#25
 x#5#26
 x#5#27
 x#5#28
 x#5#29
 x#5#30
 x#5#31
 x#5#32
 x#5#33
 x#5#34
 x#5#35
 x#5#36
 x#5#37
 x#5#38
 x#5#39
 x#5#40
 x#5#41
 x#5#42
 x#5#43
 x#5#44
 x#5#45
 x#5#46
 x#5#47
 x#5#48
 x#5#49
 x#5#50
End
