src/zimpl/instances/knapsack50nr13.txt
# Nr of Items 
50
# Nr of Knapsacks 
5
# Nr of Constraints 
5
# Items profits:
832 
942 
388 
980 
618 
998 
381 
293 
227 
202 
2 
530 
570 
801 
274 
691 
319 
134 
71 
788 
83 
613 
698 
313 
922 
611 
520 
107 
897 
531 
129 
777 
352 
220 
813 
536 
874 
716 
526 
132 
569 
954 
913 
349 
683 
540 
693 
932 
216 
261 

# Items weights:
80 51 67 48 102 
779 381 55 645 353 
776 455 909 476 198 
901 395 843 56 72 
21 431 919 124 51 
816 530 613 396 961 
103 236 326 277 425 
695 897 574 752 264 
71 27 678 294 796 
939 261 446 501 335 
420 219 579 242 23 
186 24 20 407 647 
446 850 149 266 462 
343 613 264 664 749 
291 512 567 879 804 
257 392 711 279 348 
428 159 668 932 890 
603 969 339 239 889 
531 42 14 104 589 
286 238 492 76 792 
244 442 779 889 91 
838 681 247 368 194 
292 327 549 629 890 
398 167 241 683 744 
562 731 662 379 92 
849 56 496 680 81 
633 642 781 767 699 
520 310 871 796 59 
104 949 329 851 381 
522 901 635 809 48 
519 726 960 912 213 
117 969 151 136 359 
477 869 26 229 214 
703 574 729 93 4 
682 384 656 327 12 
647 585 471 28 366 
23 433 756 136 569 
942 900 154 377 525 
213 657 685 691 193 
413 576 237 997 574 
801 610 289 979 146 
842 955 161 68 315 
378 667 174 612 764 
843 33 897 283 202 
659 171 622 753 977 
575 392 437 438 889 
196 632 54 982 585 
893 860 294 743 493 
536 233 450 751 741 
282 905 677 722 373 
# Knapsacks:
2394 2952 2318 2727 1756 
2914 2859 2522 2024 1831 
2949 2386 1921 2180 2574 
2895 2708 2681 2181 2255 
6762 7057 7131 7827 6564 
